50
100
80	3
79	2
78	1
77	1
76	2
75	4
73	5
72	1
71	2
70	6
68	1
65	1
62	5
61	2
60	3
59	4
58	2
57	2
56	2
55	1
54	3
53	2
51	1
50	2
48	2
47	3
45	1
43	1
41	2
40	1
37	1
35	2
34	1
32	1
31	1
29	1
28	2
27	1
26	1
25	3
24	3
21	2
20	1
19	2
18	1
17	4
13	2
12	1
11	1
10	1
